p cnf 77 183
1 0
8 -9 0
-8 9 0
10 -11 0
-10 11 0
7 -8 0
7 -10 0
-7 8 10 0
13 9 0
-13 -9 0
14 -11 0
-14 11 0
12 -13 0
12 -14 0
-12 13 14 0
-6 7 0
-6 12 0
6 -7 -12 0
17 -18 0
-17 18 0
19 -20 0
-19 20 0
16 -17 0
16 -19 0
-16 17 19 0
22 18 0
-22 -18 0
23 -20 0
-23 20 0
21 -22 0
21 -23 0
-21 22 23 0
-15 16 0
-15 21 0
15 -16 -21 0
5 -6 0
5 -15 0
-5 6 15 0
-24 5 0
24 -5 0
-4 5 0
-4 24 0
4 -5 -24 0
29 -18 0
-29 18 0
30 20 0
-30 -20 0
-28 29 0
-28 30 0
28 -29 -30 0
32 -9 0
-32 9 0
33 11 0
-33 -11 0
-31 32 0
-31 33 0
31 -32 -33 0
-27 28 0
-27 31 0
27 -28 -31 0
36 18 0
-36 -18 0
37 -20 0
-37 20 0
-35 36 0
-35 37 0
35 -36 -37 0
-38 31 0
38 -31 0
-34 35 0
-34 38 0
34 -35 -38 0
26 -27 0
26 -34 0
-26 27 34 0
41 18 0
-41 -18 0
42 20 0
-42 -20 0
-40 41 0
-40 42 0
40 -41 -42 0
44 9 0
-44 -9 0
45 -11 0
-45 11 0
-43 44 0
-43 45 0
43 -44 -45 0
-39 40 0
-39 43 0
39 -40 -43 0
25 -26 0
25 -39 0
-25 26 39 0
-3 4 0
-3 25 0
3 -4 -25 0
-48 5 0
48 -5 0
-49 15 0
49 -15 0
-47 48 0
-47 49 0
47 -48 -49 0
-53 28 0
53 -28 0
-54 28 0
54 -28 0
-52 53 0
-52 54 0
52 -53 -54 0
-56 35 0
56 -35 0
-57 28 0
57 -28 0
-55 56 0
-55 57 0
55 -56 -57 0
51 -52 0
51 -55 0
-51 52 55 0
-59 40 0
59 -40 0
-60 35 0
60 -35 0
-58 59 0
-58 60 0
58 -59 -60 0
50 -51 0
50 -58 0
-50 51 58 0
-46 47 0
-46 50 0
46 -47 -50 0
2 -3 0
2 -46 0
-2 3 46 0
-65 31 0
65 -31 0
-66 28 0
66 -28 0
-64 65 0
-64 66 0
64 -65 -66 0
-68 43 0
68 -43 0
-69 28 0
69 -28 0
-67 68 0
-67 69 0
67 -68 -69 0
63 -64 0
63 -67 0
-63 64 67 0
72 9 0
-72 -9 0
73 11 0
-73 -11 0
-71 72 0
-71 73 0
71 -72 -73 0
-74 35 0
74 -35 0
-70 71 0
-70 74 0
70 -71 -74 0
62 -63 0
62 -70 0
-62 63 70 0
-76 71 0
76 -71 0
-77 71 0
77 -71 0
75 -76 0
75 -77 0
-75 76 77 0
-61 62 0
-61 75 0
61 -62 -75 0
-1 2 0
-1 61 0
1 -2 -61 0
